c WMC file for PBN EPFL/random_control/router_distill_EPFL/random_control/router_miter written by probABC
p cnf 356 867
63 10 11 0
-63 -10 0
-63 -11 0
64 -10 -11 0
-64 10 0
-64 11 0
65 63 64 0
-65 -63 0
-65 -64 0
66 -12 63 0
-66 12 0
-66 -63 0
67 12 -63 0
-67 -12 0
-67 63 0
68 66 67 0
-68 -66 0
-68 -67 0
69 13 66 0
-69 -13 0
-69 -66 0
70 -13 -66 0
-70 13 0
-70 66 0
71 69 70 0
-71 -69 0
-71 -70 0
72 14 -69 0
-72 -14 0
-72 69 0
73 -14 69 0
-73 14 0
-73 -69 0
74 72 73 0
-74 -72 0
-74 -73 0
75 -15 72 0
-75 15 0
-75 -72 0
76 15 -72 0
-76 -15 0
-76 72 0
77 75 76 0
-77 -75 0
-77 -76 0
78 -16 75 0
-78 16 0
-78 -75 0
79 16 -75 0
-79 -16 0
-79 75 0
80 78 79 0
-80 -78 0
-80 -79 0
81 -16 -75 0
-81 16 0
-81 75 0
82 17 81 0
-82 -17 0
-82 -81 0
83 -17 -81 0
-83 17 0
-83 81 0
84 82 83 0
-84 -82 0
-84 -83 0
85 -18 82 0
-85 18 0
-85 -82 0
86 18 -82 0
-86 -18 0
-86 82 0
87 85 86 0
-87 -85 0
-87 -86 0
88 19 85 0
-88 -19 0
-88 -85 0
89 -19 -85 0
-89 19 0
-89 85 0
90 88 89 0
-90 -88 0
-90 -89 0
91 -20 88 0
-91 20 0
-91 -88 0
92 20 -88 0
-92 -20 0
-92 88 0
93 91 92 0
-93 -91 0
-93 -92 0
94 -21 91 0
-94 21 0
-94 -91 0
95 21 -91 0
-95 -21 0
-95 91 0
96 94 95 0
-96 -94 0
-96 -95 0
97 -21 -91 0
-97 21 0
-97 91 0
98 22 97 0
-98 -22 0
-98 -97 0
99 -22 -97 0
-99 22 0
-99 97 0
100 98 99 0
-100 -98 0
-100 -99 0
101 23 -98 0
-101 -23 0
-101 98 0
102 -23 98 0
-102 23 0
-102 -98 0
103 101 102 0
-103 -101 0
-103 -102 0
104 -24 101 0
-104 24 0
-104 -101 0
105 24 -101 0
-105 -24 0
-105 101 0
106 104 105 0
-106 -104 0
-106 -105 0
107 -25 104 0
-107 25 0
-107 -104 0
108 25 -104 0
-108 -25 0
-108 104 0
109 107 108 0
-109 -107 0
-109 -108 0
110 -25 -104 0
-110 25 0
-110 104 0
111 -26 110 0
-111 26 0
-111 -110 0
112 26 -110 0
-112 -26 0
-112 110 0
113 111 112 0
-113 -111 0
-113 -112 0
114 -26 -110 0
-114 26 0
-114 110 0
115 27 114 0
-115 -27 0
-115 -114 0
116 -27 -114 0
-116 27 0
-116 114 0
117 115 116 0
-117 -115 0
-117 -116 0
118 -28 115 0
-118 28 0
-118 -115 0
119 28 -115 0
-119 -28 0
-119 115 0
120 118 119 0
-120 -118 0
-120 -119 0
121 -29 118 0
-121 29 0
-121 -118 0
122 29 -118 0
-122 -29 0
-122 118 0
123 121 122 0
-123 -121 0
-123 -122 0
124 -29 -118 0
-124 29 0
-124 118 0
125 30 -124 0
-125 -30 0
-125 124 0
126 -30 124 0
-126 30 0
-126 -124 0
127 125 126 0
-127 -125 0
-127 -126 0
128 10 127 0
-128 -10 0
-128 -127 0
129 123 -128 0
-129 -123 0
-129 128 0
130 -120 -129 0
-130 120 0
-130 129 0
131 117 -130 0
-131 -117 0
-131 130 0
132 113 -131 0
-132 -113 0
-132 131 0
133 109 -132 0
-133 -109 0
-133 132 0
134 -106 -133 0
-134 106 0
-134 133 0
135 103 -134 0
-135 -103 0
-135 134 0
136 100 -135 0
-136 -100 0
-136 135 0
137 96 -136 0
-137 -96 0
-137 136 0
138 -93 -137 0
-138 93 0
-138 137 0
139 90 -138 0
-139 -90 0
-139 138 0
140 -87 -139 0
-140 87 0
-140 139 0
141 84 -140 0
-141 -84 0
-141 140 0
142 80 -141 0
-142 -80 0
-142 141 0
143 -77 -142 0
-143 77 0
-143 142 0
144 74 -143 0
-144 -74 0
-144 143 0
145 71 -144 0
-145 -71 0
-145 144 0
146 -68 -145 0
-146 68 0
-146 145 0
147 65 -146 0
-147 -65 0
-147 146 0
148 -9 -147 0
-148 9 0
-148 147 0
149 -8 -148 0
-149 8 0
-149 148 0
150 -7 -149 0
-150 7 0
-150 149 0
151 -6 -150 0
-151 6 0
-151 150 0
152 -5 -151 0
-152 5 0
-152 151 0
153 -4 -152 0
-153 4 0
-153 152 0
154 -3 -153 0
-154 3 0
-154 153 0
155 -2 -154 0
-155 2 0
-155 154 0
156 -1 -155 0
-156 1 0
-156 155 0
157 -30 -124 0
-157 30 0
-157 124 0
158 156 157 0
-158 -156 0
-158 -157 0
159 2 3 0
-159 -2 0
-159 -3 0
160 4 -159 0
-160 -4 0
-160 159 0
161 5 -160 0
-161 -5 0
-161 160 0
162 6 -161 0
-162 -6 0
-162 161 0
163 7 -162 0
-163 -7 0
-163 162 0
164 8 -163 0
-164 -8 0
-164 163 0
165 9 -164 0
-165 -9 0
-165 164 0
166 -65 -165 0
-166 65 0
-166 165 0
167 68 -166 0
-167 -68 0
-167 166 0
168 -71 -167 0
-168 71 0
-168 167 0
169 -74 -168 0
-169 74 0
-169 168 0
170 77 -169 0
-170 -77 0
-170 169 0
171 -80 -170 0
-171 80 0
-171 170 0
172 -84 -171 0
-172 84 0
-172 171 0
173 87 -172 0
-173 -87 0
-173 172 0
174 -90 -173 0
-174 90 0
-174 173 0
175 93 -174 0
-175 -93 0
-175 174 0
176 -96 -175 0
-176 96 0
-176 175 0
177 -100 -176 0
-177 100 0
-177 176 0
178 -103 -177 0
-178 103 0
-178 177 0
179 106 -178 0
-179 -106 0
-179 178 0
180 -109 -179 0
-180 109 0
-180 179 0
181 -113 -180 0
-181 113 0
-181 180 0
182 -117 -181 0
-182 117 0
-182 181 0
183 120 -182 0
-183 -120 0
-183 182 0
184 -123 -183 0
-184 123 0
-184 183 0
185 -10 -184 0
-185 10 0
-185 184 0
186 -157 185 0
-186 157 0
-186 -185 0
188 40 41 0
-188 -40 0
-188 -41 0
189 -42 188 0
-189 42 0
-189 -188 0
190 43 189 0
-190 -43 0
-190 -189 0
191 44 -190 0
-191 -44 0
-191 190 0
192 -45 191 0
-192 45 0
-192 -191 0
193 -46 -192 0
-193 46 0
-193 192 0
194 47 193 0
-194 -47 0
-194 -193 0
195 -48 194 0
-195 48 0
-195 -194 0
196 49 195 0
-196 -49 0
-196 -195 0
197 -50 196 0
-197 50 0
-197 -196 0
198 -51 -197 0
-198 51 0
-198 197 0
199 52 198 0
-199 -52 0
-199 -198 0
200 53 -199 0
-200 -53 0
-200 199 0
201 -54 200 0
-201 54 0
-201 -200 0
202 -55 -201 0
-202 55 0
-202 201 0
203 -56 -202 0
-203 56 0
-203 202 0
204 57 203 0
-204 -57 0
-204 -203 0
205 -58 204 0
-205 58 0
-205 -204 0
206 -59 -205 0
-206 59 0
-206 205 0
207 -60 -206 0
-207 60 0
-207 206 0
208 -1 207 0
-208 1 0
-208 -207 0
209 1 31 0
-209 -1 0
-209 -31 0
210 -207 209 0
-210 207 0
-210 -209 0
211 -40 -41 0
-211 40 0
-211 41 0
212 188 211 0
-212 -188 0
-212 -211 0
213 42 -188 0
-213 -42 0
-213 188 0
214 189 213 0
-214 -189 0
-214 -213 0
215 -43 -189 0
-215 43 0
-215 189 0
216 190 215 0
-216 -190 0
-216 -215 0
217 -44 190 0
-217 44 0
-217 -190 0
218 191 217 0
-218 -191 0
-218 -217 0
219 45 -191 0
-219 -45 0
-219 191 0
220 192 219 0
-220 -192 0
-220 -219 0
221 -46 192 0
-221 46 0
-221 -192 0
222 46 -192 0
-222 -46 0
-222 192 0
223 221 222 0
-223 -221 0
-223 -222 0
224 -47 -193 0
-224 47 0
-224 193 0
225 194 224 0
-225 -194 0
-225 -224 0
226 48 -194 0
-226 -48 0
-226 194 0
227 195 226 0
-227 -195 0
-227 -226 0
228 -49 -195 0
-228 49 0
-228 195 0
229 196 228 0
-229 -196 0
-229 -228 0
230 50 -196 0
-230 -50 0
-230 196 0
231 197 230 0
-231 -197 0
-231 -230 0
232 -51 197 0
-232 51 0
-232 -197 0
233 51 -197 0
-233 -51 0
-233 197 0
234 232 233 0
-234 -232 0
-234 -233 0
235 -52 -198 0
-235 52 0
-235 198 0
236 199 235 0
-236 -199 0
-236 -235 0
237 -53 199 0
-237 53 0
-237 -199 0
238 200 237 0
-238 -200 0
-238 -237 0
239 54 -200 0
-239 -54 0
-239 200 0
240 201 239 0
-240 -201 0
-240 -239 0
241 -55 201 0
-241 55 0
-241 -201 0
242 55 -201 0
-242 -55 0
-242 201 0
243 241 242 0
-243 -241 0
-243 -242 0
244 -56 202 0
-244 56 0
-244 -202 0
245 56 -202 0
-245 -56 0
-245 202 0
246 244 245 0
-246 -244 0
-246 -245 0
247 -57 -203 0
-247 57 0
-247 203 0
248 204 247 0
-248 -204 0
-248 -247 0
249 58 -204 0
-249 -58 0
-249 204 0
250 205 249 0
-250 -205 0
-250 -249 0
251 -59 205 0
-251 59 0
-251 -205 0
252 59 -205 0
-252 -59 0
-252 205 0
253 251 252 0
-253 -251 0
-253 -252 0
254 -31 40 0
-254 31 0
-254 -40 0
255 -60 -254 0
-255 60 0
-255 254 0
256 253 -255 0
-256 -253 0
-256 255 0
257 -250 -256 0
-257 250 0
-257 256 0
258 -61 257 0
-258 61 0
-258 -257 0
259 61 -257 0
-259 -61 0
-259 257 0
260 258 259 0
-260 -258 0
-260 -259 0
261 248 260 0
-261 -248 0
-261 -260 0
262 246 -261 0
-262 -246 0
-262 261 0
263 243 -262 0
-263 -243 0
-263 262 0
264 -240 -263 0
-264 240 0
-264 263 0
265 238 -264 0
-265 -238 0
-265 264 0
266 236 -265 0
-266 -236 0
-266 265 0
267 234 -266 0
-267 -234 0
-267 266 0
268 -231 -267 0
-268 231 0
-268 267 0
269 229 -268 0
-269 -229 0
-269 268 0
270 -227 -269 0
-270 227 0
-270 269 0
271 225 -270 0
-271 -225 0
-271 270 0
272 223 -271 0
-272 -223 0
-272 271 0
273 -220 -272 0
-273 220 0
-273 272 0
274 218 -273 0
-274 -218 0
-274 273 0
275 216 -274 0
-275 -216 0
-275 274 0
276 -214 -275 0
-276 214 0
-276 275 0
277 212 -276 0
-277 -212 0
-277 276 0
278 -39 -277 0
-278 39 0
-278 277 0
279 -38 -278 0
-279 38 0
-279 278 0
280 -37 -279 0
-280 37 0
-280 279 0
281 -36 -280 0
-281 36 0
-281 280 0
282 -35 -281 0
-282 35 0
-282 281 0
283 -34 -282 0
-283 34 0
-283 282 0
284 -33 -283 0
-284 33 0
-284 283 0
285 -32 -284 0
-285 32 0
-285 284 0
286 32 33 0
-286 -32 0
-286 -33 0
287 34 -286 0
-287 -34 0
-287 286 0
288 35 -287 0
-288 -35 0
-288 287 0
289 36 -288 0
-289 -36 0
-289 288 0
290 37 -289 0
-290 -37 0
-290 289 0
291 38 -290 0
-291 -38 0
-291 290 0
292 39 -291 0
-292 -39 0
-292 291 0
293 -212 -292 0
-293 212 0
-293 292 0
294 214 -293 0
-294 -214 0
-294 293 0
295 -216 -294 0
-295 216 0
-295 294 0
296 -218 -295 0
-296 218 0
-296 295 0
297 220 -296 0
-297 -220 0
-297 296 0
298 -223 -297 0
-298 223 0
-298 297 0
299 -225 -298 0
-299 225 0
-299 298 0
300 227 -299 0
-300 -227 0
-300 299 0
301 -229 -300 0
-301 229 0
-301 300 0
302 231 -301 0
-302 -231 0
-302 301 0
303 -234 -302 0
-303 234 0
-303 302 0
304 -236 -303 0
-304 236 0
-304 303 0
305 -238 -304 0
-305 238 0
-305 304 0
306 240 -305 0
-306 -240 0
-306 305 0
307 -243 -306 0
-307 243 0
-307 306 0
308 -246 -307 0
-308 246 0
-308 307 0
309 -248 -308 0
-309 248 0
-309 308 0
310 250 -309 0
-310 -250 0
-310 309 0
311 -253 -310 0
-311 253 0
-311 310 0
312 -40 -311 0
-312 40 0
-312 311 0
313 -207 312 0
-313 207 0
-313 -312 0
314 285 313 0
-314 -285 0
-314 -313 0
315 210 -314 0
-315 -210 0
-315 314 0
316 158 315 0
-316 -158 0
-316 -315 0
317 208 -316 0
-317 -208 0
-317 316 0
318 186 317 0
-318 -186 0
-318 -317 0
323 248 -257 0
-323 -248 0
-323 257 0
324 246 -323 0
-324 -246 0
-324 323 0
325 243 -324 0
-325 -243 0
-325 324 0
326 -240 -325 0
-326 240 0
-326 325 0
327 238 -326 0
-327 -238 0
-327 326 0
328 236 -327 0
-328 -236 0
-328 327 0
329 234 -328 0
-329 -234 0
-329 328 0
330 -231 -329 0
-330 231 0
-330 329 0
331 229 -330 0
-331 -229 0
-331 330 0
332 -227 -331 0
-332 227 0
-332 331 0
333 225 -332 0
-333 -225 0
-333 332 0
334 223 -333 0
-334 -223 0
-334 333 0
335 -220 -334 0
-335 220 0
-335 334 0
336 218 -335 0
-336 -218 0
-336 335 0
337 216 -336 0
-337 -216 0
-337 336 0
338 -214 -337 0
-338 214 0
-338 337 0
339 212 -338 0
-339 -212 0
-339 338 0
340 -39 -339 0
-340 39 0
-340 339 0
341 -38 -340 0
-341 38 0
-341 340 0
342 -37 -341 0
-342 37 0
-342 341 0
343 -36 -342 0
-343 36 0
-343 342 0
344 -35 -343 0
-344 35 0
-344 343 0
345 -34 -344 0
-345 34 0
-345 344 0
346 -33 -345 0
-346 33 0
-346 345 0
347 -32 -346 0
-347 32 0
-347 346 0
348 313 347 0
-348 -313 0
-348 -347 0
349 210 -348 0
-349 -210 0
-349 348 0
350 158 349 0
-350 -158 0
-350 -349 0
351 208 -350 0
-351 -208 0
-351 350 0
352 186 351 0
-352 -186 0
-352 -351 0
353 318 -352 0
-353 -318 0
-353 352 0
354 -318 352 0
-354 318 0
-354 -352 0
355 353 354 0
-355 -353 0
-355 -354 0
62 355 0
-62 -355 0
62 0
w 1 0.500000
w 2 0.500000
w 3 0.500000
w 4 0.500000
w 5 0.500000
w 6 0.500000
w 7 0.500000
w 8 0.500000
w 9 0.500000
w 10 0.500000
w 11 0.500000
w 12 0.500000
w 13 0.500000
w 14 0.500000
w 15 0.500000
w 16 0.500000
w 17 0.500000
w 18 0.500000
w 19 0.500000
w 20 0.500000
w 21 0.500000
w 22 0.500000
w 23 0.500000
w 24 0.500000
w 25 0.500000
w 26 0.500000
w 27 0.500000
w 28 0.500000
w 29 0.500000
w 30 0.500000
w 31 0.500000
w 32 0.500000
w 33 0.500000
w 34 0.500000
w 35 0.500000
w 36 0.500000
w 37 0.500000
w 38 0.500000
w 39 0.500000
w 40 0.500000
w 41 0.500000
w 42 0.500000
w 43 0.500000
w 44 0.500000
w 45 0.500000
w 46 0.500000
w 47 0.500000
w 48 0.500000
w 49 0.500000
w 50 0.500000
w 51 0.500000
w 52 0.500000
w 53 0.500000
w 54 0.500000
w 55 0.500000
w 56 0.500000
w 57 0.500000
w 58 0.500000
w 59 0.500000
w 60 0.500000
w 61 0.125000
w 63 -1
w 64 -1
w 65 -1
w 66 -1
w 67 -1
w 68 -1
w 69 -1
w 70 -1
w 71 -1
w 72 -1
w 73 -1
w 74 -1
w 75 -1
w 76 -1
w 77 -1
w 78 -1
w 79 -1
w 80 -1
w 81 -1
w 82 -1
w 83 -1
w 84 -1
w 85 -1
w 86 -1
w 87 -1
w 88 -1
w 89 -1
w 90 -1
w 91 -1
w 92 -1
w 93 -1
w 94 -1
w 95 -1
w 96 -1
w 97 -1
w 98 -1
w 99 -1
w 100 -1
w 101 -1
w 102 -1
w 103 -1
w 104 -1
w 105 -1
w 106 -1
w 107 -1
w 108 -1
w 109 -1
w 110 -1
w 111 -1
w 112 -1
w 113 -1
w 114 -1
w 115 -1
w 116 -1
w 117 -1
w 118 -1
w 119 -1
w 120 -1
w 121 -1
w 122 -1
w 123 -1
w 124 -1
w 125 -1
w 126 -1
w 127 -1
w 128 -1
w 129 -1
w 130 -1
w 131 -1
w 132 -1
w 133 -1
w 134 -1
w 135 -1
w 136 -1
w 137 -1
w 138 -1
w 139 -1
w 140 -1
w 141 -1
w 142 -1
w 143 -1
w 144 -1
w 145 -1
w 146 -1
w 147 -1
w 148 -1
w 149 -1
w 150 -1
w 151 -1
w 152 -1
w 153 -1
w 154 -1
w 155 -1
w 156 -1
w 157 -1
w 158 -1
w 159 -1
w 160 -1
w 161 -1
w 162 -1
w 163 -1
w 164 -1
w 165 -1
w 166 -1
w 167 -1
w 168 -1
w 169 -1
w 170 -1
w 171 -1
w 172 -1
w 173 -1
w 174 -1
w 175 -1
w 176 -1
w 177 -1
w 178 -1
w 179 -1
w 180 -1
w 181 -1
w 182 -1
w 183 -1
w 184 -1
w 185 -1
w 186 -1
w 188 -1
w 189 -1
w 190 -1
w 191 -1
w 192 -1
w 193 -1
w 194 -1
w 195 -1
w 196 -1
w 197 -1
w 198 -1
w 199 -1
w 200 -1
w 201 -1
w 202 -1
w 203 -1
w 204 -1
w 205 -1
w 206 -1
w 207 -1
w 208 -1
w 209 -1
w 210 -1
w 211 -1
w 212 -1
w 213 -1
w 214 -1
w 215 -1
w 216 -1
w 217 -1
w 218 -1
w 219 -1
w 220 -1
w 221 -1
w 222 -1
w 223 -1
w 224 -1
w 225 -1
w 226 -1
w 227 -1
w 228 -1
w 229 -1
w 230 -1
w 231 -1
w 232 -1
w 233 -1
w 234 -1
w 235 -1
w 236 -1
w 237 -1
w 238 -1
w 239 -1
w 240 -1
w 241 -1
w 242 -1
w 243 -1
w 244 -1
w 245 -1
w 246 -1
w 247 -1
w 248 -1
w 249 -1
w 250 -1
w 251 -1
w 252 -1
w 253 -1
w 254 -1
w 255 -1
w 256 -1
w 257 -1
w 258 -1
w 259 -1
w 260 -1
w 261 -1
w 262 -1
w 263 -1
w 264 -1
w 265 -1
w 266 -1
w 267 -1
w 268 -1
w 269 -1
w 270 -1
w 271 -1
w 272 -1
w 273 -1
w 274 -1
w 275 -1
w 276 -1
w 277 -1
w 278 -1
w 279 -1
w 280 -1
w 281 -1
w 282 -1
w 283 -1
w 284 -1
w 285 -1
w 286 -1
w 287 -1
w 288 -1
w 289 -1
w 290 -1
w 291 -1
w 292 -1
w 293 -1
w 294 -1
w 295 -1
w 296 -1
w 297 -1
w 298 -1
w 299 -1
w 300 -1
w 301 -1
w 302 -1
w 303 -1
w 304 -1
w 305 -1
w 306 -1
w 307 -1
w 308 -1
w 309 -1
w 310 -1
w 311 -1
w 312 -1
w 313 -1
w 314 -1
w 315 -1
w 316 -1
w 317 -1
w 318 -1
w 323 -1
w 324 -1
w 325 -1
w 326 -1
w 327 -1
w 328 -1
w 329 -1
w 330 -1
w 331 -1
w 332 -1
w 333 -1
w 334 -1
w 335 -1
w 336 -1
w 337 -1
w 338 -1
w 339 -1
w 340 -1
w 341 -1
w 342 -1
w 343 -1
w 344 -1
w 345 -1
w 346 -1
w 347 -1
w 348 -1
w 349 -1
w 350 -1
w 351 -1
w 352 -1
w 353 -1
w 354 -1
w 355 -1
w 62 -1
